; number of variables :100
; number of clauses   :1000
; each clause has 3 conjuncts
(set-logic QF_UF)
(declare-const var1 Bool)
(declare-const var2 Bool)
(declare-const var3 Bool)
(declare-const var4 Bool)
(declare-const var5 Bool)
(declare-const var6 Bool)
(declare-const var7 Bool)
(declare-const var8 Bool)
(declare-const var9 Bool)
(declare-const var10 Bool)
(declare-const var11 Bool)
(declare-const var12 Bool)
(declare-const var13 Bool)
(declare-const var14 Bool)
(declare-const var15 Bool)
(declare-const var16 Bool)
(declare-const var17 Bool)
(declare-const var18 Bool)
(declare-const var19 Bool)
(declare-const var20 Bool)
(declare-const var21 Bool)
(declare-const var22 Bool)
(declare-const var23 Bool)
(declare-const var24 Bool)
(declare-const var25 Bool)
(declare-const var26 Bool)
(declare-const var27 Bool)
(declare-const var28 Bool)
(declare-const var29 Bool)
(declare-const var30 Bool)
(declare-const var31 Bool)
(declare-const var32 Bool)
(declare-const var33 Bool)
(declare-const var34 Bool)
(declare-const var35 Bool)
(declare-const var36 Bool)
(declare-const var37 Bool)
(declare-const var38 Bool)
(declare-const var39 Bool)
(declare-const var40 Bool)
(declare-const var41 Bool)
(declare-const var42 Bool)
(declare-const var43 Bool)
(declare-const var44 Bool)
(declare-const var45 Bool)
(declare-const var46 Bool)
(declare-const var47 Bool)
(declare-const var48 Bool)
(declare-const var49 Bool)
(declare-const var50 Bool)
(declare-const var51 Bool)
(declare-const var52 Bool)
(declare-const var53 Bool)
(declare-const var54 Bool)
(declare-const var55 Bool)
(declare-const var56 Bool)
(declare-const var57 Bool)
(declare-const var58 Bool)
(declare-const var59 Bool)
(declare-const var60 Bool)
(declare-const var61 Bool)
(declare-const var62 Bool)
(declare-const var63 Bool)
(declare-const var64 Bool)
(declare-const var65 Bool)
(declare-const var66 Bool)
(declare-const var67 Bool)
(declare-const var68 Bool)
(declare-const var69 Bool)
(declare-const var70 Bool)
(declare-const var71 Bool)
(declare-const var72 Bool)
(declare-const var73 Bool)
(declare-const var74 Bool)
(declare-const var75 Bool)
(declare-const var76 Bool)
(declare-const var77 Bool)
(declare-const var78 Bool)
(declare-const var79 Bool)
(declare-const var80 Bool)
(declare-const var81 Bool)
(declare-const var82 Bool)
(declare-const var83 Bool)
(declare-const var84 Bool)
(declare-const var85 Bool)
(declare-const var86 Bool)
(declare-const var87 Bool)
(declare-const var88 Bool)
(declare-const var89 Bool)
(declare-const var90 Bool)
(declare-const var91 Bool)
(declare-const var92 Bool)
(declare-const var93 Bool)
(declare-const var94 Bool)
(declare-const var95 Bool)
(declare-const var96 Bool)
(declare-const var97 Bool)
(declare-const var98 Bool)
(declare-const var99 Bool)
(declare-const var100 Bool)
(assert (and
  (or var35 var43 var9)
  (or var8 var8 var91)
  (or var97 var40 var32)
  (or var56 var80 var80)
  (or var87 var80 var1)
  (or var92 var2 var3)
  (or var72 var54 var53)
  (or var51 var7 var24)
  (or var12 var99 var8)
  (or var7 var67 var35)
  (or var13 var64 var75)
  (or var81 var27 var44)
  (or var41 var61 var78)
  (or var95 var14 var26)
  (or var38 var100 var35)
  (or var90 var24 var23)
  (or var100 var96 var64)
  (or var51 var36 var77)
  (or var79 var3 var6)
  (or var33 var80 var64)
  (or var99 var16 var62)
  (or var31 var9 var88)
  (or var60 var31 var17)
  (or var34 var7 var66)
  (or var25 var76 var30)
  (or var42 var6 var4)
  (or var19 var28 var7)
  (or var34 var5 var11)
  (or var8 var91 var32)
  (or var60 var38 var96)
  (or var75 var89 var60)
  (or var69 var40 var23)
  (or var14 var18 var94)
  (or var4 var88 var53)
  (or var81 var45 var35)
  (or var76 var37 var56)
  (or var89 var85 var25)
  (or var44 var83 var16)
  (or var76 var88 var51)
  (or var58 var86 var99)
  (or var80 var36 var51)
  (or var26 var51 var8)
  (or var6 var64 var62)
  (or var9 var61 var55)
  (or var86 var65 var28)
  (or var11 var7 var63)
  (or var70 var28 var43)
  (or var37 var9 var7)
  (or var13 var68 var22)
  (or var24 var1 var73)
  (or var57 var56 var75)
  (or var83 var40 var14)
  (or var20 var73 var67)
  (or var6 var39 var50)
  (or var78 var15 var49)
  (or var8 var79 var40)
  (or var24 var9 var8)
  (or var93 var21 var96)
  (or var34 var96 var35)
  (or var7 var62 var56)
  (or var91 var21 var79)
  (or var35 var98 var84)
  (or var72 var22 var2)
  (or var22 var54 var11)
  (or var86 var92 var34)
  (or var47 var1 var32)
  (or var49 var27 var69)
  (or var92 var58 var27)
  (or var93 var7 var63)
  (or var95 var52 var96)
  (or var28 var53 var92)
  (or var22 var83 var14)
  (or var44 var88 var71)
  (or var50 var61 var8)
  (or var25 var3 var85)
  (or var2 var56 var12)
  (or var59 var63 var75)
  (or var31 var92 var79)
  (or var11 var29 var91)
  (or var12 var79 var11)
  (or var77 var67 var78)
  (or var94 var18 var3)
  (or var84 var48 var11)
  (or var9 var12 var17)
  (or var98 var29 var60)
  (or var86 var25 var73)
  (or var41 var32 var66)
  (or var40 var12 var98)
  (or var52 var51 var33)
  (or var20 var87 var27)
  (or var54 var56 var97)
  (or var27 var27 var31)
  (or var56 var38 var25)
  (or var68 var27 var97)
  (or var50 var43 var57)
  (or var62 var81 var89)
  (or var16 var9 var32)
  (or var61 var38 var93)
  (or var6 var100 var67)
  (or var62 var15 var3)
  (or var58 var3 var72)
  (or var22 var26 var96)
  (or var19 var80 var5)
  (or var31 var97 var27)
  (or var13 var61 var65)
  (or var88 var90 var6)
  (or var76 var86 var49)
  (or var8 var10 var21)
  (or var78 var41 var83)
  (or var15 var74 var15)
  (or var84 var55 var97)
  (or var8 var94 var36)
  (or var7 var97 var65)
  (or var43 var60 var35)
  (or var22 var4 var16)
  (or var38 var88 var45)
  (or var64 var39 var84)
  (or var77 var13 var10)
  (or var67 var38 var11)
  (or var63 var63 var92)
  (or var61 var49 var58)
  (or var99 var52 var35)
  (or var99 var100 var90)
  (or var75 var67 var74)
  (or var44 var40 var22)
  (or var89 var95 var95)
  (or var11 var6 var17)
  (or var53 var7 var2)
  (or var10 var61 var6)
  (or var66 var58 var8)
  (or var25 var36 var13)
  (or var74 var45 var2)
  (or var69 var89 var14)
  (or var82 var26 var3)
  (or var54 var94 var77)
  (or var41 var72 var49)
  (or var45 var95 var58)
  (or var79 var72 var15)
  (or var70 var40 var13)
  (or var65 var50 var7)
  (or var53 var32 var86)
  (or var1 var21 var89)
  (or var22 var32 var35)
  (or var81 var58 var82)
  (or var9 var20 var63)
  (or var7 var75 var61)
  (or var80 var17 var74)
  (or var76 var89 var43)
  (or var19 var31 var33)
  (or var45 var37 var63)
  (or var94 var29 var25)
  (or var93 var93 var31)
  (or var8 var79 var14)
  (or var47 var45 var61)
  (or var13 var60 var14)
  (or var12 var45 var28)
  (or var95 var52 var45)
  (or var31 var47 var78)
  (or var17 var3 var71)
  (or var61 var42 var92)
  (or var48 var92 var50)
  (or var93 var71 var70)
  (or var1 var55 var42)
  (or var63 var55 var22)
  (or var56 var87 var1)
  (or var13 var78 var3)
  (or var15 var33 var91)
  (or var62 var2 var32)
  (or var20 var28 var3)
  (or var84 var77 var73)
  (or var83 var77 var13)
  (or var39 var3 var1)
  (or var1 var17 var16)
  (or var52 var42 var60)
  (or var28 var60 var59)
  (or var13 var8 var4)
  (or var17 var53 var85)
  (or var31 var20 var7)
  (or var95 var25 var63)
  (or var21 var25 var75)
  (or var16 var83 var10)
  (or var98 var66 var29)
  (or var87 var4 var77)
  (or var90 var62 var73)
  (or var47 var76 var1)
  (or var20 var10 var17)
  (or var95 var85 var14)
  (or var67 var4 var15)
  (or var19 var65 var86)
  (or var86 var50 var79)
  (or var28 var97 var100)
  (or var9 var33 var27)
  (or var22 var77 var37)
  (or var16 var17 var90)
  (or var95 var52 var2)
  (or var42 var13 var96)
  (or var28 var90 var90)
  (or var78 var91 var2)
  (or var96 var8 var29)
  (or var49 var98 var57)
  (or var28 var13 var16)
  (or var27 var44 var40)
  (or var43 var62 var45)
  (or var2 var4 var40)
  (or var98 var55 var92)
  (or var33 var30 var88)
  (or var78 var40 var89)
  (or var43 var47 var43)
  (or var46 var70 var10)
  (or var74 var14 var50)
  (or var26 var60 var23)
  (or var96 var7 var19)
  (or var63 var30 var14)
  (or var19 var96 var30)
  (or var24 var67 var1)
  (or var8 var31 var23)
  (or var70 var71 var86)
  (or var56 var58 var54)
  (or var86 var45 var39)
  (or var60 var31 var11)
  (or var38 var23 var65)
  (or var78 var44 var63)
  (or var28 var48 var32)
  (or var83 var75 var15)
  (or var7 var54 var75)
  (or var84 var73 var89)
  (or var17 var21 var89)
  (or var47 var19 var73)
  (or var89 var80 var85)
  (or var54 var21 var54)
  (or var85 var22 var72)
  (or var87 var48 var47)
  (or var95 var63 var81)
  (or var41 var33 var38)
  (or var72 var20 var49)
  (or var13 var14 var95)
  (or var64 var44 var71)
  (or var53 var66 var78)
  (or var62 var51 var49)
  (or var12 var92 var44)
  (or var43 var3 var52)
  (or var97 var28 var75)
  (or var12 var77 var77)
  (or var55 var17 var94)
  (or var21 var2 var61)
  (or var61 var47 var60)
  (or var73 var41 var60)
  (or var43 var13 var35)
  (or var55 var13 var9)
  (or var29 var68 var46)
  (or var50 var6 var8)
  (or var34 var34 var99)
  (or var76 var65 var89)
  (or var52 var38 var89)
  (or var25 var17 var66)
  (or var26 var16 var28)
  (or var30 var1 var23)
  (or var68 var99 var26)
  (or var62 var98 var50)
  (or var31 var60 var55)
  (or var13 var56 var15)
  (or var26 var53 var82)
  (or var72 var51 var90)
  (or var96 var47 var29)
  (or var93 var50 var88)
  (or var22 var12 var13)
  (or var58 var47 var38)
  (or var76 var46 var71)
  (or var93 var83 var4)
  (or var97 var89 var64)
  (or var2 var98 var39)
  (or var40 var52 var56)
  (or var96 var86 var48)
  (or var88 var39 var5)
  (or var31 var33 var47)
  (or var49 var71 var37)
  (or var95 var27 var75)
  (or var91 var59 var91)
  (or var6 var56 var1)
  (or var16 var41 var24)
  (or var54 var32 var71)
  (or var59 var24 var7)
  (or var1 var19 var50)
  (or var62 var13 var14)
  (or var32 var9 var41)
  (or var29 var64 var22)
  (or var66 var20 var10)
  (or var92 var56 var42)
  (or var12 var56 var12)
  (or var24 var14 var33)
  (or var35 var93 var89)
  (or var80 var8 var42)
  (or var40 var42 var98)
  (or var24 var11 var81)
  (or var5 var96 var81)
  (or var97 var77 var61)
  (or var99 var57 var50)
  (or var26 var20 var50)
  (or var72 var99 var34)
  (or var23 var35 var10)
  (or var64 var38 var89)
  (or var43 var90 var23)
  (or var80 var86 var43)
  (or var59 var10 var26)
  (or var60 var53 var92)
  (or var67 var50 var64)
  (or var9 var5 var76)
  (or var33 var7 var93)
  (or var6 var7 var58)
  (or var44 var3 var5)
  (or var24 var13 var64)
  (or var48 var11 var44)
  (or var91 var57 var74)
  (or var99 var59 var51)
  (or var54 var61 var77)
  (or var61 var73 var44)
  (or var65 var18 var88)
  (or var26 var36 var31)
  (or var97 var20 var10)
  (or var70 var10 var20)
  (or var61 var71 var90)
  (or var61 var87 var68)
  (or var79 var54 var1)
  (or var20 var44 var56)
  (or var39 var65 var59)
  (or var77 var18 var51)
  (or var39 var98 var94)
  (or var90 var45 var76)
  (or var91 var38 var12)
  (or var53 var35 var85)
  (or var19 var21 var54)
  (or var9 var25 var64)
  (or var12 var61 var89)
  (or var50 var32 var77)
  (or var96 var65 var49)
  (or var44 var19 var45)
  (or var49 var87 var72)
  (or var63 var9 var12)
  (or var58 var47 var55)
  (or var4 var58 var63)
  (or var49 var17 var76)
  (or var80 var30 var51)
  (or var24 var20 var81)
  (or var7 var20 var98)
  (or var58 var59 var96)
  (or var11 var88 var90)
  (or var22 var17 var65)
  (or var19 var12 var37)
  (or var41 var9 var69)
  (or var55 var99 var22)
  (or var92 var67 var75)
  (or var38 var48 var11)
  (or var89 var45 var67)
  (or var73 var29 var60)
  (or var38 var80 var8)
  (or var100 var78 var1)
  (or var89 var87 var70)
  (or var89 var47 var38)
  (or var9 var100 var87)
  (or var1 var68 var66)
  (or var42 var48 var39)
  (or var46 var3 var43)
  (or var11 var5 var56)
  (or var62 var74 var26)
  (or var73 var72 var51)
  (or var90 var78 var50)
  (or var77 var67 var98)
  (or var12 var87 var57)
  (or var13 var98 var84)
  (or var7 var28 var41)
  (or var63 var92 var42)
  (or var72 var98 var44)
  (or var64 var91 var88)
  (or var15 var21 var63)
  (or var78 var25 var37)
  (or var35 var46 var18)
  (or var75 var10 var90)
  (or var9 var79 var85)
  (or var46 var61 var36)
  (or var76 var59 var62)
  (or var85 var46 var89)
  (or var50 var63 var57)
  (or var73 var55 var79)
  (or var45 var92 var9)
  (or var100 var73 var56)
  (or var15 var84 var73)
  (or var42 var28 var32)
  (or var59 var69 var87)
  (or var22 var51 var43)
  (or var24 var76 var80)
  (or var39 var32 var49)
  (or var28 var16 var40)
  (or var29 var25 var65)
  (or var96 var19 var91)
  (or var57 var20 var71)
  (or var66 var34 var53)
  (or var3 var3 var80)
  (or var11 var69 var78)
  (or var80 var71 var95)
  (or var30 var100 var56)
  (or var66 var95 var23)
  (or var99 var18 var95)
  (or var96 var18 var6)
  (or var27 var55 var78)
  (or var61 var32 var44)
  (or var85 var63 var28)
  (or var52 var89 var18)
  (or var83 var19 var10)
  (or var4 var2 var97)
  (or var89 var5 var68)
  (or var98 var23 var9)
  (or var36 var74 var61)
  (or var46 var92 var1)
  (or var52 var15 var51)
  (or var57 var65 var21)
  (or var35 var33 var62)
  (or var60 var69 var17)
  (or var66 var77 var40)
  (or var40 var70 var24)
  (or var95 var14 var52)
  (or var5 var32 var33)
  (or var95 var21 var49)
  (or var45 var83 var2)
  (or var79 var55 var5)
  (or var52 var45 var50)
  (or var66 var51 var75)
  (or var95 var80 var44)
  (or var10 var94 var38)
  (or var76 var81 var81)
  (or var60 var33 var75)
  (or var48 var52 var49)
  (or var43 var18 var29)
  (or var88 var88 var49)
  (or var61 var72 var15)
  (or var59 var20 var7)
  (or var7 var94 var53)
  (or var16 var65 var59)
  (or var32 var68 var40)
  (or var22 var25 var39)
  (or var4 var35 var56)
  (or var56 var7 var59)
  (or var48 var67 var79)
  (or var20 var97 var54)
  (or var92 var65 var16)
  (or var6 var2 var20)
  (or var53 var15 var8)
  (or var56 var99 var17)
  (or var16 var17 var8)
  (or var72 var45 var52)
  (or var61 var89 var13)
  (or var30 var7 var15)
  (or var7 var19 var77)
  (or var90 var52 var85)
  (or var23 var43 var37)
  (or var70 var95 var22)
  (or var76 var52 var77)
  (or var89 var24 var94)
  (or var3 var57 var90)
  (or var17 var43 var33)
  (or var57 var83 var40)
  (or var63 var97 var83)
  (or var82 var96 var19)
  (or var68 var74 var82)
  (or var69 var34 var4)
  (or var13 var29 var84)
  (or var91 var45 var99)
  (or var4 var86 var53)
  (or var98 var88 var17)
  (or var36 var6 var45)
  (or var45 var33 var92)
  (or var50 var72 var67)
  (or var84 var26 var77)
  (or var42 var6 var88)
  (or var98 var12 var51)
  (or var76 var11 var4)
  (or var45 var13 var98)
  (or var95 var94 var99)
  (or var70 var71 var38)
  (or var7 var45 var55)
  (or var55 var79 var61)
  (or var95 var64 var88)
  (or var13 var82 var98)
  (or var24 var92 var68)
  (or var73 var69 var80)
  (or var53 var76 var51)
  (or var91 var13 var86)
  (or var18 var77 var46)
  (or var61 var37 var41)
  (or var74 var96 var88)
  (or var61 var97 var64)
  (or var78 var90 var23)
  (or var11 var83 var43)
  (or var73 var94 var30)
  (or var32 var55 var56)
  (or var65 var60 var17)
  (or var42 var37 var9)
  (or var24 var100 var91)
  (or var80 var14 var56)
  (or var6 var68 var83)
  (or var92 var15 var31)
  (or var78 var49 var55)
  (or var88 var99 var2)
  (or var36 var54 var75)
  (or var98 var70 var28)
  (or var96 var91 var46)
  (or var74 var56 var100)
  (or var39 var89 var90)
  (or var39 var73 var92)
  (or var91 var9 var4)
  (or var58 var1 var20)
  (or var3 var80 var20)
  (or var96 var78 var82)
  (or var43 var31 var69)
  (or var86 var88 var90)
  (or var85 var49 var49)
  (or var7 var46 var60)
  (or var12 var35 var27)
  (or var59 var44 var42)
  (or var6 var26 var25)
  (or var71 var66 var12)
  (or var13 var8 var74)
  (or var56 var84 var11)
  (or var26 var6 var66)
  (or var28 var71 var14)
  (or var53 var5 var11)
  (or var47 var72 var61)
  (or var21 var62 var70)
  (or var32 var81 var18)
  (or var25 var60 var87)
  (or var82 var60 var1)
  (or var95 var80 var40)
  (or var88 var68 var25)
  (or var17 var87 var33)
  (or var33 var41 var77)
  (or var17 var69 var65)
  (or var83 var38 var12)
  (or var86 var72 var58)
  (or var75 var76 var56)
  (or var81 var68 var54)
  (or var69 var96 var63)
  (or var82 var19 var76)
  (or var23 var42 var80)
  (or var40 var5 var21)
  (or var5 var64 var26)
  (or var42 var18 var89)
  (or var35 var21 var80)
  (or var3 var4 var53)
  (or var94 var61 var61)
  (or var65 var93 var22)
  (or var89 var5 var82)
  (or var4 var42 var60)
  (or var20 var80 var22)
  (or var18 var62 var95)
  (or var67 var22 var92)
  (or var39 var4 var23)
  (or var91 var87 var59)
  (or var57 var1 var13)
  (or var22 var83 var39)
  (or var32 var27 var30)
  (or var43 var20 var57)
  (or var66 var69 var36)
  (or var96 var25 var75)
  (or var40 var85 var38)
  (or var71 var35 var88)
  (or var76 var44 var41)
  (or var38 var45 var39)
  (or var8 var45 var61)
  (or var31 var41 var11)
  (or var48 var30 var2)
  (or var89 var22 var69)
  (or var16 var98 var51)
  (or var90 var73 var50)
  (or var61 var35 var53)
  (or var80 var28 var30)
  (or var35 var88 var10)
  (or var21 var31 var36)
  (or var73 var89 var6)
  (or var8 var2 var20)
  (or var3 var47 var25)
  (or var92 var72 var49)
  (or var8 var54 var67)
  (or var61 var42 var12)
  (or var82 var25 var51)
  (or var81 var51 var31)
  (or var87 var6 var74)
  (or var91 var47 var47)
  (or var16 var97 var88)
  (or var49 var41 var13)
  (or var93 var1 var19)
  (or var33 var6 var15)
  (or var73 var49 var34)
  (or var24 var46 var19)
  (or var33 var27 var84)
  (or var70 var34 var59)
  (or var29 var27 var26)
  (or var68 var52 var8)
  (or var6 var26 var44)
  (or var29 var68 var95)
  (or var78 var64 var76)
  (or var75 var59 var78)
  (or var40 var61 var25)
  (or var30 var2 var35)
  (or var15 var42 var16)
  (or var83 var74 var10)
  (or var83 var23 var11)
  (or var67 var96 var82)
  (or var63 var33 var28)
  (or var44 var36 var88)
  (or var1 var70 var34)
  (or var31 var65 var93)
  (or var90 var100 var8)
  (or var13 var99 var10)
  (or var69 var93 var15)
  (or var89 var2 var35)
  (or var24 var99 var85)
  (or var80 var91 var79)
  (or var84 var33 var75)
  (or var67 var29 var34)
  (or var91 var4 var70)
  (or var21 var83 var22)
  (or var10 var62 var11)
  (or var80 var91 var32)
  (or var29 var1 var50)
  (or var99 var74 var32)
  (or var61 var79 var12)
  (or var58 var88 var69)
  (or var25 var35 var55)
  (or var7 var42 var24)
  (or var49 var81 var38)
  (or var52 var10 var91)
  (or var21 var39 var67)
  (or var76 var18 var52)
  (or var100 var71 var9)
  (or var5 var50 var45)
  (or var49 var17 var37)
  (or var89 var75 var42)
  (or var91 var10 var19)
  (or var95 var11 var39)
  (or var29 var8 var20)
  (or var42 var30 var71)
  (or var24 var96 var31)
  (or var16 var56 var80)
  (or var45 var100 var44)
  (or var31 var25 var97)
  (or var23 var40 var23)
  (or var28 var42 var100)
  (or var92 var56 var60)
  (or var8 var58 var90)
  (or var47 var40 var11)
  (or var66 var100 var68)
  (or var43 var66 var59)
  (or var75 var65 var51)
  (or var94 var61 var64)
  (or var71 var87 var38)
  (or var72 var53 var37)
  (or var44 var69 var23)
  (or var98 var98 var29)
  (or var34 var100 var79)
  (or var80 var64 var82)
  (or var45 var84 var13)
  (or var52 var72 var25)
  (or var54 var39 var81)
  (or var68 var99 var94)
  (or var58 var9 var42)
  (or var19 var100 var53)
  (or var89 var65 var47)
  (or var10 var97 var63)
  (or var16 var40 var89)
  (or var54 var55 var45)
  (or var19 var25 var29)
  (or var53 var56 var42)
  (or var91 var31 var65)
  (or var29 var26 var36)
  (or var81 var54 var60)
  (or var24 var11 var65)
  (or var99 var11 var19)
  (or var1 var84 var49)
  (or var47 var91 var42)
  (or var55 var70 var8)
  (or var51 var49 var86)
  (or var62 var12 var61)
  (or var17 var40 var54)
  (or var88 var66 var79)
  (or var13 var53 var90)
  (or var11 var64 var9)
  (or var42 var72 var11)
  (or var81 var64 var90)
  (or var63 var42 var65)
  (or var49 var10 var64)
  (or var96 var48 var61)
  (or var60 var23 var67)
  (or var16 var78 var22)
  (or var17 var73 var26)
  (or var17 var63 var26)
  (or var27 var85 var40)
  (or var11 var20 var37)
  (or var88 var60 var26)
  (or var36 var89 var91)
  (or var45 var27 var56)
  (or var18 var86 var24)
  (or var17 var3 var33)
  (or var56 var83 var81)
  (or var3 var38 var50)
  (or var47 var5 var62)
  (or var58 var30 var44)
  (or var14 var30 var77)
  (or var4 var27 var100)
  (or var45 var16 var89)
  (or var4 var12 var26)
  (or var76 var90 var23)
  (or var68 var82 var95)
  (or var88 var40 var94)
  (or var44 var17 var31)
  (or var69 var94 var95)
  (or var60 var95 var41)
  (or var5 var30 var4)
  (or var87 var44 var10)
  (or var14 var25 var23)
  (or var87 var77 var35)
  (or var39 var60 var54)
  (or var34 var86 var27)
  (or var94 var39 var69)
  (or var28 var3 var95)
  (or var54 var68 var61)
  (or var76 var99 var73)
  (or var86 var100 var76)
  (or var15 var33 var3)
  (or var70 var96 var73)
  (or var74 var18 var36)
  (or var58 var46 var84)
  (or var82 var33 var47)
  (or var68 var60 var14)
  (or var2 var13 var23)
  (or var45 var54 var100)
  (or var72 var99 var6)
  (or var64 var97 var27)
  (or var95 var91 var20)
  (or var74 var18 var11)
  (or var32 var35 var40)
  (or var29 var32 var72)
  (or var95 var9 var28)
  (or var60 var83 var79)
  (or var56 var4 var67)
  (or var85 var7 var37)
  (or var26 var44 var31)
  (or var97 var13 var22)
  (or var90 var63 var40)
  (or var36 var65 var74)
  (or var74 var96 var5)
  (or var43 var1 var71)
  (or var79 var57 var3)
  (or var1 var99 var21)
  (or var83 var37 var47)
  (or var12 var79 var46)
  (or var30 var36 var49)
  (or var44 var70 var68)
  (or var1 var8 var47)
  (or var78 var82 var64)
  (or var37 var89 var26)
  (or var7 var73 var77)
  (or var90 var77 var95)
  (or var54 var96 var98)
  (or var53 var85 var90)
  (or var94 var46 var76)
  (or var94 var82 var94)
  (or var45 var84 var99)
  (or var37 var18 var83)
  (or var59 var97 var49)
  (or var26 var68 var92)
  (or var62 var33 var50)
  (or var41 var9 var60)
  (or var88 var56 var30)
  (or var90 var80 var78)
  (or var60 var56 var30)
  (or var55 var100 var49)
  (or var69 var49 var75)
  (or var22 var25 var10)
  (or var71 var86 var79)
  (or var75 var11 var53)
  (or var85 var85 var38)
  (or var28 var13 var70)
  (or var56 var1 var42)
  (or var44 var79 var83)
  (or var59 var15 var60)
  (or var73 var43 var22)
  (or var27 var100 var49)
  (or var83 var61 var82)
  (or var96 var66 var63)
  (or var65 var7 var94)
  (or var90 var70 var32)
  (or var35 var8 var52)
  (or var61 var73 var1)
  (or var17 var47 var37)
  (or var96 var94 var96)
  (or var21 var16 var58)
  (or var60 var70 var31)
  (or var40 var34 var13)
  (or var9 var55 var32)
  (or var100 var73 var58)
  (or var72 var98 var43)
  (or var92 var90 var84)
  (or var5 var36 var30)
  (or var63 var14 var38)
  (or var87 var26 var3)
  (or var100 var61 var25)
  (or var44 var74 var56)
  (or var44 var61 var19)
  (or var81 var82 var49)
  (or var76 var41 var73)
  (or var16 var51 var67)
  (or var16 var7 var34)
  (or var45 var76 var14)
  (or var91 var23 var38)
  (or var43 var98 var18)
  (or var89 var56 var33)
  (or var90 var55 var47)
  (or var81 var37 var98)
  (or var56 var77 var69)
  (or var21 var84 var87)
  (or var5 var62 var28)
  (or var75 var49 var80)
  (or var53 var60 var23)
  (or var37 var30 var86)
  (or var98 var63 var90)
  (or var99 var65 var80)
  (or var41 var49 var7)
  (or var81 var36 var85)
  (or var100 var49 var36)
  (or var6 var92 var71)
  (or var44 var97 var73)
  (or var66 var52 var88)
  (or var7 var48 var32)
  (or var20 var16 var91)
  (or var8 var96 var70)
  (or var2 var1 var86)
  (or var47 var84 var23)
  (or var81 var25 var100)
  (or var94 var56 var92)
  (or var64 var79 var57)
  (or var20 var91 var52)
  (or var100 var38 var21)
  (or var73 var32 var12)
  (or var89 var70 var94)
  (or var42 var82 var81)
  (or var37 var92 var29)
  (or var17 var46 var25)
  (or var1 var62 var67)
  (or var67 var69 var86)
  (or var4 var69 var58)
  (or var70 var90 var27)
  (or var7 var32 var79)
  (or var50 var44 var17)
  (or var27 var69 var82)
  (or var71 var58 var100)
  (or var47 var50 var28)
  (or var66 var41 var30)
  (or var61 var80 var98)
  (or var78 var60 var45)
  (or var16 var22 var71)
  (or var96 var64 var90)
  (or var22 var69 var32)
  (or var3 var83 var44)
  (or var9 var94 var40)
  (or var59 var24 var66)
  (or var37 var49 var41)
  (or var34 var27 var77)
  (or var25 var97 var93)
  (or var28 var23 var26)
  (or var25 var24 var43)
  (or var83 var62 var20)
  (or var81 var99 var15)
  (or var86 var24 var42)
  (or var33 var44 var33)
  (or var10 var68 var5)
  (or var21 var50 var28)
  (or var42 var60 var5)
  (or var89 var86 var9)
  (or var18 var2 var59)
  (or var71 var76 var22)
  (or var97 var49 var7)
  (or var18 var34 var89)
  (or var5 var36 var65)
  (or var83 var5 var80)
  (or var6 var30 var28)
  (or var92 var61 var51)
  (or var74 var12 var89)
  (or var53 var1 var17)
  (or var27 var4 var69)
  (or var3 var50 var49)
  (or var28 var60 var29)
  (or var92 var1 var57)
  (or var37 var38 var3)
  (or var69 var56 var77)
  (or var80 var25 var20)
  (or var37 var72 var13)
  (or var43 var2 var8)
  (or var72 var81 var92)
  (or var92 var63 var14)
  (or var7 var78 var75)
  (or var63 var73 var21)
  (or var80 var98 var43)
  (or var25 var49 var67)
  (or var86 var95 var13)
  (or var70 var9 var11)
  (or var14 var52 var49)
  (or var45 var80 var53)
  (or var67 var49 var34)
  (or var26 var98 var27)
  (or var79 var50 var33)
  (or var62 var1 var7)
  (or var93 var91 var84)
  (or var92 var68 var78)
  (or var70 var20 var46)
  (or var79 var1 var56)
  (or var44 var6 var45)
  (or var84 var62 var75)
  (or var94 var33 var75)
  (or var88 var44 var53)
  (or var66 var47 var19)
  (or var23 var42 var2)
  (or var76 var7 var44)
  (or var55 var62 var44)
  (or var9 var29 var8)
  (or var73 var35 var66)
  (or var49 var39 var33)
  (or var11 var38 var38)
  (or var49 var80 var70)
  (or var85 var52 var86)
  (or var47 var27 var63)
  (or var57 var55 var40)
  (or var43 var14 var30)
  (or var1 var94 var61)
  (or var90 var43 var41)
  (or var56 var60 var51)
  (or var59 var14 var77)
  (or var66 var36 var32)
  (or var28 var15 var34)
  (or var84 var24 var7)
  (or var50 var13 var41)
  (or var10 var73 var35)
  (or var57 var66 var66)
  (or var71 var31 var9)
  (or var64 var27 var90)
  (or var31 var72 var34)
  (or var37 var60 var91)
  (or var27 var95 var74)
  (or var1 var86 var70)
  (or var57 var34 var34)
  (or var8 var46 var66)
  (or var58 var41 var94)
  (or var37 var95 var4)
  (or var45 var71 var71)
  (or var52 var62 var75)
  (or var81 var34 var57)
  (or var86 var59 var51)
  (or var86 var69 var11)
  (or var51 var2 var45)
  (or var91 var5 var95)
  (or var19 var37 var21)
  (or var10 var44 var28)
  (or var11 var50 var24)
  (or var35 var56 var55)
  (or var43 var39 var39)
  (or var29 var18 var13)
  (or var2 var76 var51)
  (or var73 var77 var27)
  (or var20 var7 var43)
  (or var71 var98 var56)
  (or var5 var59 var28)
  (or var55 var45 var12)
  (or var38 var77 var92)
  (or var70 var98 var13)
  (or var65 var39 var57)
  (or var20 var40 var35)
  (or var36 var38 var12)
  (or var51 var82 var35)
  (or var50 var12 var58)
  (or var52 var36 var87)
  (or var35 var46 var24)
  (or var78 var28 var53)
  (or var54 var88 var94)
  (or var5 var98 var64)
  (or var8 var22 var36)
  (or var43 var76 var92)
  (or var63 var96 var76)
  (or var53 var86 var82)
  (or var14 var77 var62)
  (or var40 var85 var4)
  (or var10 var95 var40)
  (or var54 var91 var35)
  (or var67 var73 var23)
  (or var56 var46 var62)
  (or var55 var52 var29)
  (or var88 var94 var81)
  (or var97 var53 var12)
  (or var66 var20 var86)
  (or var95 var11 var30)
  (or var80 var45 var50)
  (or var3 var58 var58)
  (or var75 var8 var79)
  ))
(check-sat)
(get-model)
(exit)